
Starting CP-SAT solver v9.15.6755
Parameters: random_seed: 2026072851 max_time_in_seconds: 6939.9999996073338 log_search_progress: true cp_model_presolve: true linearization_level: 2 num_search_workers: 4 cp_model_probing_level: 2 symmetry_level: 2

Initial satisfaction model '': (model_fingerprint: 0xb7724c7fb73627d7)
#Variables: 724 (608 primary variables)
  - 724 Booleans in [0,1]
#kBoolAnd: 110 (#enforced: 110) (#literals: 330)
#kBoolOr: 110 (#enforced: 110) (#literals: 220)
#kExactlyOne: 87 (#literals: 261)
#kLinear1: 32 (#enforced: 6)
#kLinear2: 336 (#enforced: 336) (#complex_domain: 110)
#kLinear3: 1'600 (#enforced: 6)
#kLinearN: 1'132 (#enforced: 243) (#terms: 9'111)

Starting presolve at 0.00s
  4.64e-04s  0.00e+00d  [DetectDominanceRelations] 
  5.83e-03s  0.00e+00d  [PresolveToFixPoint] #num_loops=3 #num_dual_strengthening=1 
  2.50e-05s  0.00e+00d  [ExtractEncodingFromLinear] #potential_supersets=82 
  2.14e-04s  0.00e+00d  [DetectDuplicateColumns] 
  7.31e-05s  0.00e+00d  [DetectDuplicateConstraints] #duplicates=5 
[Symmetry] Graph for symmetry has 4'869 nodes and 15'728 arcs.
[Symmetry] Symmetry computation done. time: 0.000887287 dtime: 0.00181305
[SAT presolve] num removable Booleans: 220 / 626
[SAT presolve] num trivial clauses: 0
[SAT presolve] [0s] clauses:2'734 literals:7'430 vars:506 one_side_vars:66 simple_definition:1 singleton_clauses:0
[SAT presolve] [0.000170357s] clauses:2'733 literals:7'423 vars:506 one_side_vars:66 simple_definition:1 singleton_clauses:0
[SAT presolve] [0.000525112s] clauses:2'254 literals:6'619 vars:380 one_side_vars:73 simple_definition:65 singleton_clauses:0
  9.67e-05s  0.00e+00d  [DetectDuplicateConstraintsWithDifferentEnforcements] #without_enforcements=2 
  3.91e-03s  2.21e-03d  [Probe] #probed=1'300 #fixed_bools=16 #equiv=8 #new_binary_clauses=813 
  3.37e-04s  2.47e-04d  [MaxClique] Merged 589 constraints with 1'292 literals into 518 constraints with 1'175 literals
  5.73e-04s  0.00e+00d  [DetectDominanceRelations] 
  2.19e-03s  0.00e+00d  [PresolveToFixPoint] #num_loops=1 #num_dual_strengthening=1 
  9.12e-04s  0.00e+00d  [ProcessAtMostOneAndLinear] 
  7.41e-05s  0.00e+00d  [DetectDuplicateConstraints] #duplicates=10 
  5.40e-05s  0.00e+00d  [DetectDuplicateConstraintsWithDifferentEnforcements] 
  2.49e-03s  1.04e-04d  [DetectDominatedLinearConstraints] #relevant_constraints=828 #num_inclusions=505 #num_redundant=7 
  9.45e-05s  0.00e+00d  [DetectDifferentVariables] 
  5.46e-04s  8.45e-05d  [ProcessSetPPC] #relevant_constraints=3'001 #num_inclusions=100 
  2.10e-04s  3.34e-05d  [TransformClausesToExactlyOne] #num_amos=515 #num_clauses=1'671 #num_checked=1'671 
  4.02e-05s  0.00e+00d  [DetectEncodedComplexDomains] 
  2.58e-05s  1.80e-07d  [FindAlmostIdenticalLinearConstraints] #num_tested_pairs=2 
  6.70e-04s  1.38e-03d  [FindBigAtMostOneAndLinearOverlap] 
  1.12e-03s  1.20e-03d  [FindBigVerticalLinearOverlap] #blocks=3 #saved_nz=105 
  2.41e-04s  6.42e-04d  [FindBigHorizontalLinearOverlap] #linears=459 
  2.29e-04s  2.70e-05d  [MergeClauses] #num_collisions=22 #num_merges=22 #num_saved_literals=110 
  5.58e-04s  0.00e+00d  [DetectDominanceRelations] 
  2.05e-03s  0.00e+00d  [PresolveToFixPoint] #num_loops=2 #num_dual_strengthening=1 
  5.48e-04s  0.00e+00d  [DetectDominanceRelations] 
  1.99e-03s  0.00e+00d  [PresolveToFixPoint] #num_loops=1 #num_dual_strengthening=1 
  1.56e-04s  0.00e+00d  [DetectDuplicateColumns] 
  6.61e-05s  0.00e+00d  [DetectDuplicateConstraints] 
[Symmetry] Graph for symmetry has 4'272 nodes and 13'455 arcs.
[Symmetry] Symmetry computation done. time: 0.000707342 dtime: 0.00143605
[SAT presolve] num removable Booleans: 93 / 475
[SAT presolve] num trivial clauses: 0
[SAT presolve] [0s] clauses:2'145 literals:6'357 vars:449 one_side_vars:149 simple_definition:70 singleton_clauses:0
[SAT presolve] [0.000162111s] clauses:2'145 literals:6'178 vars:449 one_side_vars:190 simple_definition:62 singleton_clauses:0
[SAT presolve] [0.0002146s] clauses:2'139 literals:6'174 vars:446 one_side_vars:190 simple_definition:56 singleton_clauses:0
  1.28e-04s  0.00e+00d  [DetectDuplicateConstraintsWithDifferentEnforcements] #without_enforcements=1 
  3.19e-03s  1.65e-03d  [Probe] #probed=1'284 #new_binary_clauses=299 
  2.93e-04s  2.51e-04d  [MaxClique] Merged 509 constraints with 1'096 literals into 497 constraints with 1'087 literals
  5.72e-04s  0.00e+00d  [DetectDominanceRelations] 
  2.12e-03s  0.00e+00d  [PresolveToFixPoint] #num_loops=1 #num_dual_strengthening=1 
  8.38e-04s  0.00e+00d  [ProcessAtMostOneAndLinear] 
  1.03e-04s  0.00e+00d  [DetectDuplicateConstraints] 
  6.64e-05s  0.00e+00d  [DetectDuplicateConstraintsWithDifferentEnforcements] #without_enforcements=1 
  5.25e-04s  5.47e-05d  [DetectDominatedLinearConstraints] #relevant_constraints=813 #num_inclusions=286 #num_redundant=1 
  9.50e-05s  0.00e+00d  [DetectDifferentVariables] 
  5.68e-04s  7.49e-05d  [ProcessSetPPC] #relevant_constraints=3'031 #num_inclusions=102 
  2.11e-04s  3.29e-05d  [TransformClausesToExactlyOne] #num_amos=496 #num_clauses=1'670 #num_checked=1'670 
  3.40e-05s  0.00e+00d  [DetectEncodedComplexDomains] 
  3.00e-05s  9.00e-08d  [FindAlmostIdenticalLinearConstraints] #num_tested_pairs=1 
  6.39e-04s  1.17e-03d  [FindBigAtMostOneAndLinearOverlap] 
  1.07e-03s  1.05e-03d  [FindBigVerticalLinearOverlap] 
  2.44e-04s  5.96e-04d  [FindBigHorizontalLinearOverlap] #linears=459 
  2.41e-04s  2.62e-05d  [MergeClauses] #num_collisions=76 #num_merges=76 #num_saved_literals=220 
  5.97e-04s  0.00e+00d  [DetectDominanceRelations] 
  2.13e-03s  0.00e+00d  [PresolveToFixPoint] #num_loops=1 #num_dual_strengthening=1 
  5.84e-04s  0.00e+00d  [DetectDominanceRelations] 
  2.08e-03s  0.00e+00d  [PresolveToFixPoint] #num_loops=1 #num_dual_strengthening=1 
  1.22e-04s  0.00e+00d  [DetectDuplicateColumns] 
  6.97e-05s  0.00e+00d  [DetectDuplicateConstraints] 
[Symmetry] Graph for symmetry has 4'212 nodes and 13'112 arcs.
[Symmetry] Symmetry computation done. time: 0.000714876 dtime: 0.00137718
[SAT presolve] num removable Booleans: 90 / 472
[SAT presolve] num trivial clauses: 0
[SAT presolve] [0s] clauses:2'129 literals:6'155 vars:446 one_side_vars:190 simple_definition:57 singleton_clauses:0
[SAT presolve] [0.000152031s] clauses:2'129 literals:6'155 vars:446 one_side_vars:190 simple_definition:57 singleton_clauses:0
[SAT presolve] [0.000195727s] clauses:2'129 literals:6'155 vars:446 one_side_vars:190 simple_definition:57 singleton_clauses:0
  1.17e-04s  0.00e+00d  [DetectDuplicateConstraintsWithDifferentEnforcements] 
  3.21e-03s  1.65e-03d  [Probe] #probed=1'284 #new_binary_clauses=299 
  3.11e-04s  2.50e-04d  [MaxClique] Merged 496 constraints with 1'079 literals into 495 constraints with 1'078 literals
  6.14e-04s  0.00e+00d  [DetectDominanceRelations] 
  2.18e-03s  0.00e+00d  [PresolveToFixPoint] #num_loops=1 #num_dual_strengthening=1 
  8.40e-04s  0.00e+00d  [ProcessAtMostOneAndLinear] 
  1.12e-04s  0.00e+00d  [DetectDuplicateConstraints] 
  6.72e-05s  0.00e+00d  [DetectDuplicateConstraintsWithDifferentEnforcements] 
  6.04e-04s  5.58e-05d  [DetectDominatedLinearConstraints] #relevant_constraints=813 #num_inclusions=293 #num_redundant=1 
  1.03e-04s  0.00e+00d  [DetectDifferentVariables] 
  5.42e-04s  7.33e-05d  [ProcessSetPPC] #relevant_constraints=3'035 #num_inclusions=90 
  2.34e-04s  3.30e-05d  [TransformClausesToExactlyOne] #num_amos=495 #num_clauses=1'676 #num_checked=1'676 
  4.44e-05s  0.00e+00d  [DetectEncodedComplexDomains] 
  3.71e-05s  9.00e-08d  [FindAlmostIdenticalLinearConstraints] #num_tested_pairs=1 
  6.28e-04s  1.13e-03d  [FindBigAtMostOneAndLinearOverlap] 
  9.85e-04s  9.44e-04d  [FindBigVerticalLinearOverlap] #blocks=4 #saved_nz=272 
  2.39e-04s  5.33e-04d  [FindBigHorizontalLinearOverlap] #linears=459 
  2.43e-04s  2.62e-05d  [MergeClauses] #num_collisions=79 #num_merges=79 #num_saved_literals=226 
  6.24e-04s  0.00e+00d  [DetectDominanceRelations] 
  2.22e-03s  0.00e+00d  [PresolveToFixPoint] #num_loops=2 #num_dual_strengthening=1 
  1.30e-05s  0.00e+00d  [MergeNoOverlap] 
  1.15e-05s  0.00e+00d  [MergeNoOverlap2D] 

Presolve summary:
  - 42 affine relations were detected.
  - rule 'TODO dual: only one blocking constraint?' was applied 844 times.
  - rule 'TODO dual: tighten at most one' was applied 8 times.
  - rule 'TODO linear inclusion: superset is equality' was applied 179 times.
  - rule 'affine: new relation' was applied 42 times.
  - rule 'at_most_one: removed literals' was applied 61 times.
  - rule 'at_most_one: size one' was applied 60 times.
  - rule 'at_most_one: transformed into max clique' was applied 3 times.
  - rule 'bool_or: implications' was applied 71 times.
  - rule 'bool_or: only one literal' was applied 12 times.
  - rule 'bool_or: removed enforcement literal' was applied 557 times.
  - rule 'deductions: 857 stored' was applied 1 time.
  - rule 'duplicate: merged rhs of linear constraint' was applied 14 times.
  - rule 'duplicate: removed constraint' was applied 15 times.
  - rule 'duplicate: removed enforced constraint' was applied 3 times.
  - rule 'enforcement: false literal' was applied 38 times.
  - rule 'enforcement: true literal' was applied 12 times.
  - rule 'exactly_one: removed literals' was applied 33 times.
  - rule 'exactly_one: satisfied' was applied 3 times.
  - rule 'exactly_one: singleton' was applied 3 times.
  - rule 'exactly_one: size two' was applied 30 times.
  - rule 'exactly_one: x and not(x)' was applied 6 times.
  - rule 'incompatible linear: add implication' was applied 126 times.
  - rule 'linear + amo: empty after processing' was applied 6 times.
  - rule 'linear + amo: extracted enforcement literal' was applied 56 times.
  - rule 'linear inclusion: redundant containing constraint' was applied 3 times.
  - rule 'linear inclusion: redundant included constraint' was applied 3 times.
  - rule 'linear inclusion: sparsify superset' was applied 3 times.
  - rule 'linear matrix: common vertical rectangle' was applied 7 times.
  - rule 'linear1: always true' was applied 5 times.
  - rule 'linear1: x in domain' was applied 26 times.
  - rule 'linear2: convert ax + by != cte to clauses' was applied 264 times.
  - rule 'linear2: convert implied ax + by == cte to clauses' was applied 114 times.
  - rule 'linear2: implied ax + by = cte has only one solution' was applied 11 times.
  - rule 'linear: always true' was applied 410 times.
  - rule 'linear: empty' was applied 9 times.
  - rule 'linear: enforcement literal in expression' was applied 8 times.
  - rule 'linear: extracted at most one (max)' was applied 1 time.
  - rule 'linear: fixed or dup variables' was applied 888 times.
  - rule 'linear: negative clause' was applied 1'295 times.
  - rule 'linear: negative reified and' was applied 78 times.
  - rule 'linear: never in domain' was applied 6 times.
  - rule 'linear: positive at most one' was applied 30 times.
  - rule 'linear: reduced variable domains' was applied 8 times.
  - rule 'linear: remapped using affine relations' was applied 36 times.
  - rule 'presolve: 82 unused variables removed.' was applied 1 time.
  - rule 'presolve: iteration' was applied 3 times.
  - rule 'probing: bool_or reduced to implication' was applied 28 times.
  - rule 'probing: simplified clauses' was applied 7 times.
  - rule 'setppc: bool_or in at_most_one' was applied 7 times.
  - rule 'setppc: removed dominated constraints' was applied 86 times.
  - rule 'variables: both boolean and its negation fix the same variable' was applied 4 times.
  - rule 'variables: detect half reified value encoding' was applied 8 times.

Presolved satisfaction model '': (model_fingerprint: 0x1bc774db6f667c7)
#Variables: 475 (405 primary variables)
  - 472 Booleans in [0,1]
  - 2 in [0,2]
  - 1 in [0,9]
#kAtMostOne: 44 (#literals: 176)
#kBoolAnd: 259 (#enforced: 259) (#literals: 710)
#kBoolAndClauses: 79 (#enforced: 79 #multi: 79) (#literals: 384)
#kBoolOr: 1'518 (#literals: 4'639)
#kExactlyOne: 51 (#literals: 191)
#kLinearN: 813 (#enforced: 116) (#terms: 5'425)
[Symmetry] Graph for symmetry has 3'959 nodes and 12'812 arcs.
[Symmetry] Symmetry computation done. time: 0.000552134 dtime: 0.00122786

Preloading model.
#Model   0.07s var:475/475 constraints:2764/2764

Starting search at 0.07s with 4 workers.
3 full problem subsolvers: [default_lp, max_lp, no_lp]
1 first solution subsolver: [fj]
2 interleaved subsolvers: [feasibility_pump, rins/rens]
2 helper subsolvers: [neighborhood_helper, synchronization_agent]

#Model   0.44s var:474/475 constraints:2764/2764
#Model  12.24s var:473/475 constraints:2763/2764
#Model  24.32s var:472/475 constraints:2762/2764
#Model  43.94s var:471/475 constraints:2760/2764
#Model 125.42s var:470/475 constraints:2746/2764
#Model 157.61s var:469/475 constraints:2744/2764
#Model 302.82s var:468/475 constraints:2743/2764
#Model 1000.98s var:467/475 constraints:2728/2764
#Model 1270.97s var:466/475 constraints:2728/2764
#Model 1278.17s var:462/475 constraints:2695/2764
#Model 1376.55s var:461/475 constraints:2695/2764
#Model 1492.17s var:460/475 constraints:2677/2764
#Model 1763.14s var:459/475 constraints:2677/2764
#Model 2081.69s var:457/475 constraints:2674/2764
#Model 2209.49s var:456/475 constraints:2673/2764
#Model 2311.39s var:455/475 constraints:2670/2764
#Model 2807.29s var:454/475 constraints:2647/2764
#Model 2827.10s var:453/475 constraints:2646/2764
#Model 3348.60s var:444/475 constraints:2516/2764
#Model 3355.77s var:443/475 constraints:2503/2764
#Model 3356.63s var:442/475 constraints:2501/2764
#Model 3357.67s var:441/475 constraints:2486/2764
#Model 3357.99s var:440/475 constraints:2472/2764
#Model 3358.29s var:439/475 constraints:2453/2764
#Model 3359.95s var:436/475 constraints:2428/2764
#Model 3360.08s var:435/475 constraints:2410/2764
#Model 3360.21s var:431/475 constraints:2374/2764
#Done  3360.26s no_lp

Task timing                   n [     min,      max]      avg      dev     time         n [     min,      max]      avg      dev    dtime
        'default_lp':         1 [  56.00m,   56.00m]   56.00m   0.00ns   56.00m         2 [  1.94ms,    1.46h]   43.85m   43.85m    1.46h
  'feasibility_pump':     19072 [672.55us,  99.43ms]   1.38ms 770.07us   26.26s     19071 [267.28us, 115.96ms] 274.37us 837.75us    5.23s
                'fj':     19072 [ 41.98ms, 192.19ms]  96.94ms   7.94ms   30.81m     19072 [ 29.40ms, 100.13ms] 100.01ms 511.54us   31.79m
            'max_lp':         1 [  56.00m,   56.00m]   56.00m   0.00ns   56.00m         2 [ 77.08ms,    1.84h]   55.18m   55.18m    1.84h
             'no_lp':         1 [  56.00m,   56.00m]   56.00m   0.00ns   56.00m         2 [  1.46ms,    2.56h]    1.28h    1.28h    2.56h
         'rins/rens':     19072 [508.59us, 192.59ms]  77.76ms  29.68ms   24.72m     19059 [ 87.25us, 100.44ms]  68.73ms  36.76ms   21.83m

Search stats     Bools   Conflicts    Branches  Restarts  BacktrackToRoot   Backtrack     BoolPropag  IntegerPropag
  'default_lp':    472     447'058  11'468'908     2'292        1'783'722   2'644'195    117'744'274    115'214'836
      'max_lp':    472     165'915  16'749'177       965        2'601'278   3'288'259    161'747'625    173'579'287
       'no_lp':    472  28'710'718  38'179'076    87'854          671'071  29'198'999  2'319'337'044    457'240'034

SAT formula      Fixed  Equiv  Total  VarLeft  BinaryClauses  PermanentClauses  TemporaryClauses
  'default_lp':     33     11    472      428          2'792            56'884             1'216
      'max_lp':     31     10    472      431          2'882            57'737             1'989
       'no_lp':    270     11    472      191          2'874           149'060             4'911

SAT stats        ClassicMinim   LitRemoved  LitRemovedBinary   LitLearned  LitForgotten   Subsumed
  'default_lp':       391'991    5'028'394         2'352'235   12'991'666     8'541'822    166'707
      'max_lp':       141'124    1'737'299           880'068    3'760'909     1'977'589     66'657
       'no_lp':    25'656'165  450'776'728       178'872'075  699'897'921   563'103'511  7'514'128

Vivification       Clauses   Decisions  LitTrue  Subsumed  LitRemoved  DecisionReused  Conflicts
  'default_lp':  1'792'478  10'511'611        8    34'343     379'830         525'881      3'497
      'max_lp':  2'580'372  16'000'364        0    36'585     401'436         644'150      3'658
       'no_lp':    489'136   4'180'723        0    38'354     487'065         105'999      2'038

Clause deletion    at_true  l_and_not(l)  to_binary  sub_conflict  sub_extra  sub_decisions  sub_eager  sub_vivify  sub_probing  sub_inpro  blocked  eliminated   forgotten    promoted   conflicts
    'default_lp':   31'555           585        152       164'109      1'152          6'373      2'598      34'343       12'899     31'007        0           0     239'607     868'976     447'058
        'max_lp':   30'397           267        148        65'881        304          1'843        776      36'585       13'836     22'272        0           0      66'521     287'290     165'915
         'no_lp':  124'352           675        203     7'385'117     59'663        294'842    129'011      38'354       19'858    174'242        0           0  20'343'868  64'926'549  28'710'718

Lp stats         Component  Iterations  AddedCuts  OPTIMAL  DUAL_F.  DUAL_U.
  'default_lp':          1  63'028'637    161'544  618'151        2  348'295
      'max_lp':          1  28'600'405    116'318   59'912  111'306   62'472

Lp dimension        Final dimension of first component
  'default_lp':    305 rows, 340 columns, 3064 entries
      'max_lp':  1364 rows, 475 columns, 16700 entries

Lp debug         CutPropag  CutEqPropag   Adjust  Overflow        Bad  BadScaling
  'default_lp':          0        1'105  348'284         0  4'244'766           0
      'max_lp':          0          893   62'463         0  3'387'948           0

Lp pool          Constraints  Updates  Simplif  Merged  Shortened  Split  Strengthened        Cuts/Call
  'default_lp':       10'314   43'268   15'801       0     20'511    691             1  161'544/249'464
      'max_lp':       12'421   37'371    7'736       3      8'152    470         3'325  116'318/197'552

Lp Cut            default_lp  max_lp
          CG_FF:       2'290     182
           CG_K:       1'318      30
          CG_KL:         985       8
           CG_R:       2'577      85
          CG_RB:          60       1
         CG_RBP:          14       -
         Clique:           -     384
             IB:          34      13
       MIR_1_FF:       1'241     956
        MIR_1_K:         311      35
       MIR_1_KL:         786      19
        MIR_1_R:       1'424     385
       MIR_1_RB:          11       3
      MIR_1_RBP:           3       -
      MIR_1_RLT:           -  13'526
       MIR_2_FF:       2'023     717
        MIR_2_K:         519     125
       MIR_2_KL:         929     107
        MIR_2_R:       4'707     665
       MIR_2_RB:          78       1
      MIR_2_RBP:          38       1
       MIR_3_FF:         697     255
        MIR_3_K:         153      28
       MIR_3_KL:         208      45
        MIR_3_R:       3'048     237
       MIR_3_RB:          68       2
      MIR_3_RBP:          36       -
       MIR_4_FF:         285      57
        MIR_4_K:          71      14
       MIR_4_KL:          73      12
        MIR_4_R:       2'585     192
       MIR_4_RB:          59       1
      MIR_4_RBP:          46       -
       MIR_5_FF:         118      17
        MIR_5_K:          32       8
       MIR_5_KL:          12       1
        MIR_5_R:       1'947     134
       MIR_5_RB:          51       3
      MIR_5_RBP:          33       -
       MIR_6_FF:          88      12
        MIR_6_K:          27       1
       MIR_6_KL:           7       1
        MIR_6_R:       1'474     134
       MIR_6_RB:          34       3
      MIR_6_RBP:          23       1
   ZERO_HALF_FF:         980     791
    ZERO_HALF_K:         173      64
   ZERO_HALF_KL:         252       5
    ZERO_HALF_R:     129'469  97'012
   ZERO_HALF_RB:          68       1
  ZERO_HALF_RBP:          79      44

LNS stats       Improv/Calls  Closed  Difficulty  TimeLimit
  'rins/rens':   19067/19067     50%    7.76e-01       0.10

LS stats                                    Batches  Restarts/Perturbs    LinMoves    GenMoves  CompoundMoves   Bactracks  WeightUpdates  ScoreComputed
                             'fj_restart':      964                249  27'854'188           0              0           0     25'800'131     11'827'994
                    'fj_restart_compound':    1'268                212           0  14'462'819        568'679   6'946'681         43'079    231'600'324
                'fj_restart_compound_obj':      934                239           0  10'670'900        607'510   5'031'246         25'545    170'907'303
            'fj_restart_compound_perturb':    1'056                227           0  12'258'088        632'632   5'812'241         29'651    193'576'010
        'fj_restart_compound_perturb_obj':      799                253           0   9'067'236        602'963   4'231'652         19'527    145'923'334
                       'fj_restart_decay':    1'694                259  55'550'948           0              0           0      2'364'664     20'176'713
              'fj_restart_decay_compound':    1'163                228           0  14'869'764      2'463'578   6'202'519         15'636    215'319'918
          'fj_restart_decay_compound_obj':    1'011                234           0  12'756'286      2'123'594   5'315'661         13'719    187'275'249
      'fj_restart_decay_compound_perturb':    2'047                268           0  26'776'862      4'435'523  11'170'016         27'365    379'391'455
  'fj_restart_decay_compound_perturb_obj':    1'462                236           0  19'010'326      3'147'898   7'930'604         19'690    271'409'190
                   'fj_restart_decay_obj':    1'700                181  55'334'749           0              0           0      2'370'911     19'348'835
               'fj_restart_decay_perturb':    1'033                239  33'741'576           0              0           0      1'440'737     11'882'767
           'fj_restart_decay_perturb_obj':      815                232  26'676'100           0              0           0      1'136'546      9'631'636
                         'fj_restart_obj':    1'130                235  33'390'913           0              0           0     30'432'429     12'586'997
                     'fj_restart_perturb':    1'037                211  30'212'722           0              0           0     28'048'980     12'666'439
                 'fj_restart_perturb_obj':      959                253  28'175'645           0              0           0     25'968'450     12'563'111

Solution repositories    Added  Queried  Synchro
    'alternative_path':      0        0        0
      'best_solutions':      0        0        0
   'fj solution hints':  3'748        0    3'748
        'lp solutions':  1'647   19'072    1'617
                'pump':      0        0

Improving bounds shared    Num  Sym
            'default_lp':    8    0
                'max_lp':    7    0
                 'no_lp':  200    0

Clauses shared    #Exported  #Imported  #BinaryRead  #BinaryTotal
   'default_lp':      8'012    136'029        1'339         1'437
       'max_lp':      8'082    134'714        1'325         1'437
        'no_lp':    133'289     15'375        1'437         1'437

LRAT_status: NA
CpSolverResponse summary:
status: INFEASIBLE
objective: NA
best_bound: NA
integers: 340
booleans: 472
conflicts: 28710718
branches: 38179076
propagations: 2319337044
integer_propagations: 457240034
restarts: 87854
lp_iterations: 0
walltime: 3360.28
usertime: 3360.28
deterministic_time: 24338.4
gap_integral: 0

{
  "board_size": 22,
  "parity_proved": 0,
  "target": 34,
  "child_id": 651,
  "child_count": 2640,
  "partition": "unknown_pair_x_diag_plus_twos_x_diag_minus_twos",
  "build_seconds": 0.05378866195678711,
  "workers": 4,
  "requested_seed": 2026072851,
  "effective_seed": 2026072851,
  "main_diagonal_pair": [
    2,
    3
  ],
  "pair_index": 40,
  "diag_plus_twos": 16,
  "diag_minus_twos": 15,
  "pair_excess": 0,
  "residual_certificate_slack": 112,
  "analytic_minimum_line_defect": 46,
  "analytic_defect_details": {
    "row_costs": {
      "12": 6,
      "13": 3,
      "14": 0,
      "15": 0,
      "16": 0,
      "17": 0
    },
    "column_costs": {
      "12": 6,
      "13": 3,
      "14": 0,
      "15": 0,
      "16": 0,
      "17": 0
    },
    "plus_cost": 24,
    "minus_cost": 22,
    "row_column_minimum": 0
  },
  "maximal_line_constraints": 2455,
  "analytic_infeasible": false,
  "allowed_points": 242,
  "status": "INFEASIBLE",
  "proof_method": "cp_sat_all_lines_with_certificate_profile_cuts",
  "elapsed_seconds": 3360.2844541072845,
  "branches": 38179076,
  "conflicts": 28710718
}
